; benchmark generated from python API
(set-info :status unknown)
(declare-fun x_month () Int)
(declare-fun x_day () Int)
(declare-fun x_year () Int)
(declare-fun y_month () Int)
(declare-fun y_day () Int)
(declare-fun y_year () Int)
(assert
 (>= x_month 1))
(assert
 (<= x_month 12))
(assert
 (>= x_day 1))
(assert
 (<= x_day 31))
(assert
 (let (($x239 (<= x_day 28)))
 (let (($x178 (<= x_day 29)))
 (let (($x175 (= (mod x_year 400) 0)))
 (let (($x169 (= (mod x_year 4) 0)))
 (let (($x235 (ite (or (and $x169 (and (distinct (mod x_year 100) 0) true)) $x175) $x178 $x239)))
 (let (($x204 (= x_month 2)))
 (ite $x204 $x235 true))))))))
(assert
 (let (($x215 (<= x_day 30)))
 (let (($x218 (or (= x_month 4) (= x_month 6) (= x_month 9) (= x_month 11))))
 (ite $x218 $x215 true))))
(assert
 (>= y_month 1))
(assert
 (<= y_month 12))
(assert
 (>= y_day 1))
(assert
 (<= y_day 31))
(assert
 (let (($x171 (<= y_day 28)))
 (let (($x188 (<= y_day 29)))
 (let (($x240 (= (mod y_year 400) 0)))
 (let (($x225 (= (mod y_year 4) 0)))
 (let (($x134 (ite (or (and $x225 (and (distinct (mod y_year 100) 0) true)) $x240) $x188 $x171)))
 (let (($x219 (= y_month 2)))
 (ite $x219 $x134 true))))))))
(assert
 (let (($x193 (<= y_day 30)))
 (let (($x192 (or (= y_month 4) (= y_month 6) (= y_month 9) (= y_month 11))))
 (ite $x192 $x193 true))))
(assert
 (let (($x246 (= x_day 31)))
 (let (($x245 (= x_month 1)))
 (let (($x244 (= x_year 2020)))
 (and $x244 $x245 $x246)))))
(assert
 (let (($x251 (= y_day 31)))
 (let (($x247 (= y_month 1)))
 (let (($x250 (= y_year 2019)))
 (and $x250 $x247 $x251)))))
(assert
 (let (($x29 (or (and (= (mod 2000 4) 0) (and (distinct (mod 2000 100) 0) true)) (= (mod 2000 400) 0))))
 (let ((?x36 (ite (= 3 2) (ite $x29 31 31) (ite (= 3 1) (ite $x29 0 0) 0))))
 (let ((?x46 (ite (= 3 4) (ite $x29 91 90) (ite (= 3 3) (ite $x29 60 59) ?x36))))
 (let ((?x58 (ite (= 3 6) (ite $x29 152 151) (ite (= 3 5) (ite $x29 121 120) ?x46))))
 (let ((?x70 (ite (= 3 8) (ite $x29 213 212) (ite (= 3 7) (ite $x29 182 181) ?x58))))
 (let ((?x82 (ite (= 3 10) (ite $x29 274 273) (ite (= 3 9) (ite $x29 244 243) ?x70))))
 (let ((?x94 (ite (= 3 12) (ite $x29 335 334) (ite (= 3 11) (ite $x29 305 304) ?x82))))
 (let ((?x16 (- (+ (* 365 (- 2000 1)) (div (- 2000 1) 4)) (div (- 2000 1) 100))))
 (let ((?x97 (+ (+ (+ ?x16 (div (- 2000 1) 400)) ?x94) (- 1 1))))
 (let ((?x258 (+ (mod (- (+ x_month (+ (* 0 12) 1)) 1) 12) 1)))
 (let ((?x277 (ite (or (= ?x258 4) (= ?x258 6) (= ?x258 9) (= ?x258 11)) 30 31)))
 (let ((?x257 (+ 0 (div (- (+ x_month (+ (* 0 12) 1)) 1) 12))))
 (let ((?x259 (+ x_year ?x257)))
 (let (($x270 (or (and (= (mod ?x259 4) 0) (and (distinct (mod ?x259 100) 0) true)) (= (mod ?x259 400) 0))))
 (let ((?x289 (ite (= ?x258 2) (ite $x270 29 28) ?x277)))
 (let ((?x287 (ite (< x_day 1) 1 (ite (> x_day ?x289) ?x289 x_day))))
 (let ((?x285 (ite (< ?x287 1) 1 (ite (> ?x287 ?x289) ?x289 ?x287))))
 (let ((?x293 (ite (= 2 ?x258) (ite $x270 31 31) (ite (= 1 ?x258) (ite $x270 0 0) 0))))
 (let ((?x305 (ite (= 4 ?x258) (ite $x270 91 90) (ite (= 3 ?x258) (ite $x270 60 59) ?x293))))
 (let ((?x344 (ite (= 6 ?x258) (ite $x270 152 151) (ite (= 5 ?x258) (ite $x270 121 120) ?x305))))
 (let ((?x335 (ite (= 8 ?x258) (ite $x270 213 212) (ite (= 7 ?x258) (ite $x270 182 181) ?x344))))
 (let ((?x326 (ite (= 10 ?x258) (ite $x270 274 273) (ite (= 9 ?x258) (ite $x270 244 243) ?x335))))
 (let ((?x317 (ite (= 12 ?x258) (ite $x270 335 334) (ite (= 11 ?x258) (ite $x270 305 304) ?x326))))
 (let ((?x296 (- (+ (* 365 (- ?x259 1)) (div (- ?x259 1) 4)) (div (- ?x259 1) 100))))
 (let ((?x278 (- (+ (+ (+ ?x296 (div (- ?x259 1) 400)) ?x317) (- ?x285 1)) ?x97)))
 (let ((?x313 (+ (+ ?x278 0) ?x97)))
 (let ((?x325 (mod ?x313 146097)))
 (let ((?x328 (div ?x325 36524)))
 (let ((?x334 (ite (<= 4 ?x328) 3 ?x328)))
 (let ((?x340 (- ?x325 (* ?x334 36524))))
 (let ((?x346 (mod ?x340 1461)))
 (let ((?x349 (div ?x346 365)))
 (let ((?x351 (ite (<= 4 ?x349) 3 ?x349)))
 (let ((?x152 (+ (+ (* (div ?x313 146097) 400) (* ?x334 100)) (* (div ?x340 1461) 4))))
 (let ((?x125 (+ (+ ?x152 ?x351) 1)))
 (let (($x135 (or (and (= (mod ?x125 4) 0) (and (distinct (mod ?x125 100) 0) true)) (= (mod ?x125 400) 0))))
 (let ((?x146 (- ?x346 (* ?x351 365))))
 (let ((?x137 (ite $x135 31 31)))
 (let (($x360 (>= ?x146 ?x137)))
 (let ((?x398 (ite $x360 (+ (- ?x146 ?x137) 1) (+ (- ?x146 (ite $x135 0 0)) 1))))
 (let ((?x122 (ite $x135 60 59)))
 (let (($x366 (>= ?x146 ?x122)))
 (let ((?x121 (ite $x135 91 90)))
 (let (($x368 (>= ?x146 ?x121)))
 (let ((?x103 (ite $x368 (+ (- ?x146 ?x121) 1) (ite $x366 (+ (- ?x146 ?x122) 1) ?x398))))
 (let ((?x120 (ite $x135 121 120)))
 (let (($x370 (>= ?x146 ?x120)))
 (let ((?x102 (ite $x135 152 151)))
 (let (($x372 (>= ?x146 ?x102)))
 (let ((?x352 (ite $x372 (+ (- ?x146 ?x102) 1) (ite $x370 (+ (- ?x146 ?x120) 1) ?x103))))
 (let ((?x356 (ite $x135 182 181)))
 (let (($x374 (>= ?x146 ?x356)))
 (let ((?x357 (ite $x135 213 212)))
 (let (($x376 (>= ?x146 ?x357)))
 (let ((?x138 (ite $x376 (+ (- ?x146 ?x357) 1) (ite $x374 (+ (- ?x146 ?x356) 1) ?x352))))
 (let ((?x358 (ite $x135 244 243)))
 (let (($x378 (>= ?x146 ?x358)))
 (let ((?x359 (ite $x135 274 273)))
 (let (($x380 (>= ?x146 ?x359)))
 (let ((?x395 (ite $x380 (+ (- ?x146 ?x359) 1) (ite $x378 (+ (- ?x146 ?x358) 1) ?x138))))
 (let ((?x365 (ite $x135 305 304)))
 (let (($x382 (>= ?x146 ?x365)))
 (let ((?x353 (ite $x135 335 334)))
 (let (($x386 (>= ?x146 ?x353)))
 (let ((?x143 (ite $x386 (+ (- ?x146 ?x353) 1) (ite $x382 (+ (- ?x146 ?x365) 1) ?x395))))
 (let (($x302 (= 0 0)))
 (let ((?x371 (ite $x370 5 (ite $x368 4 (ite $x366 3 (ite $x360 2 1))))))
 (let ((?x379 (ite $x378 9 (ite $x376 8 (ite $x374 7 (ite $x372 6 ?x371))))))
 (let (($x264 (= (ite $x302 ?x258 (ite $x386 12 (ite $x382 11 (ite $x380 10 ?x379)))) 2)))
 (and (= (ite $x302 ?x259 ?x125) 2020) $x264 (= (ite $x302 ?x285 ?x143) 29))))))))))))))))))))))))))))))))))))))))))))))))))))))))))))))))))))))))
(assert
 (let (($x29 (or (and (= (mod 2000 4) 0) (and (distinct (mod 2000 100) 0) true)) (= (mod 2000 400) 0))))
(let ((?x36 (ite (= 3 2) (ite $x29 31 31) (ite (= 3 1) (ite $x29 0 0) 0))))
(let ((?x46 (ite (= 3 4) (ite $x29 91 90) (ite (= 3 3) (ite $x29 60 59) ?x36))))
(let ((?x58 (ite (= 3 6) (ite $x29 152 151) (ite (= 3 5) (ite $x29 121 120) ?x46))))
(let ((?x70 (ite (= 3 8) (ite $x29 213 212) (ite (= 3 7) (ite $x29 182 181) ?x58))))
(let ((?x82 (ite (= 3 10) (ite $x29 274 273) (ite (= 3 9) (ite $x29 244 243) ?x70))))
(let ((?x94 (ite (= 3 12) (ite $x29 335 334) (ite (= 3 11) (ite $x29 305 304) ?x82))))
(let ((?x16 (- (+ (* 365 (- 2000 1)) (div (- 2000 1) 4)) (div (- 2000 1) 100))))
(let ((?x97 (+ (+ (+ ?x16 (div (- 2000 1) 400)) ?x94) (- 1 1))))
(let ((?x458 (+ (mod (- (+ y_month (+ (* 0 12) 1)) 1) 12) 1)))
(let ((?x475 (ite (or (= ?x458 4) (= ?x458 6) (= ?x458 9) (= ?x458 11)) 30 31)))
(let ((?x457 (+ 0 (div (- (+ y_month (+ (* 0 12) 1)) 1) 12))))
(let ((?x459 (+ y_year ?x457)))
(let (($x468 (or (and (= (mod ?x459 4) 0) (and (distinct (mod ?x459 100) 0) true)) (= (mod ?x459 400) 0))))
(let ((?x476 (ite (= ?x458 2) (ite $x468 29 28) ?x475)))
(let ((?x480 (ite (< y_day 1) 1 (ite (> y_day ?x476) ?x476 y_day))))
(let ((?x484 (ite (< ?x480 1) 1 (ite (> ?x480 ?x476) ?x476 ?x480))))
(let ((?x498 (ite (= 2 ?x458) (ite $x468 31 31) (ite (= 1 ?x458) (ite $x468 0 0) 0))))
(let ((?x504 (ite (= 4 ?x458) (ite $x468 91 90) (ite (= 3 ?x458) (ite $x468 60 59) ?x498))))
(let ((?x510 (ite (= 6 ?x458) (ite $x468 152 151) (ite (= 5 ?x458) (ite $x468 121 120) ?x504))))
(let ((?x516 (ite (= 8 ?x458) (ite $x468 213 212) (ite (= 7 ?x458) (ite $x468 182 181) ?x510))))
(let ((?x522 (ite (= 10 ?x458) (ite $x468 274 273) (ite (= 9 ?x458) (ite $x468 244 243) ?x516))))
(let ((?x528 (ite (= 12 ?x458) (ite $x468 335 334) (ite (= 11 ?x458) (ite $x468 305 304) ?x522))))
(let ((?x490 (- (+ (* 365 (- ?x459 1)) (div (- ?x459 1) 4)) (div (- ?x459 1) 100))))
(let ((?x532 (- (+ (+ (+ ?x490 (div (- ?x459 1) 400)) ?x528) (- ?x484 1)) ?x97)))
(let ((?x534 (+ (+ ?x532 0) ?x97)))
(let ((?x536 (mod ?x534 146097)))
(let ((?x537 (div ?x536 36524)))
(let ((?x539 (ite (<= 4 ?x537) 3 ?x537)))
(let ((?x541 (- ?x536 (* ?x539 36524))))
(let ((?x543 (mod ?x541 1461)))
(let ((?x544 (div ?x543 365)))
(let ((?x546 (ite (<= 4 ?x544) 3 ?x544)))
(let ((?x553 (+ (+ (* (div ?x534 146097) 400) (* ?x539 100)) (* (div ?x541 1461) 4))))
(let ((?x555 (+ (+ ?x553 ?x546) 1)))
(let (($x563 (or (and (= (mod ?x555 4) 0) (and (distinct (mod ?x555 100) 0) true)) (= (mod ?x555 400) 0))))
(let ((?x548 (- ?x543 (* ?x546 365))))
(let ((?x565 (ite $x563 31 31)))
(let (($x576 (>= ?x548 ?x565)))
(let ((?x602 (ite $x576 (+ (- ?x548 ?x565) 1) (+ (- ?x548 (ite $x563 0 0)) 1))))
(let ((?x566 (ite $x563 60 59)))
(let (($x578 (>= ?x548 ?x566)))
(let ((?x567 (ite $x563 91 90)))
(let (($x580 (>= ?x548 ?x567)))
(let ((?x608 (ite $x580 (+ (- ?x548 ?x567) 1) (ite $x578 (+ (- ?x548 ?x566) 1) ?x602))))
(let ((?x568 (ite $x563 121 120)))
(let (($x582 (>= ?x548 ?x568)))
(let ((?x569 (ite $x563 152 151)))
(let (($x584 (>= ?x548 ?x569)))
(let ((?x614 (ite $x584 (+ (- ?x548 ?x569) 1) (ite $x582 (+ (- ?x548 ?x568) 1) ?x608))))
(let ((?x570 (ite $x563 182 181)))
(let (($x586 (>= ?x548 ?x570)))
(let ((?x571 (ite $x563 213 212)))
(let (($x588 (>= ?x548 ?x571)))
(let ((?x620 (ite $x588 (+ (- ?x548 ?x571) 1) (ite $x586 (+ (- ?x548 ?x570) 1) ?x614))))
(let ((?x572 (ite $x563 244 243)))
(let (($x590 (>= ?x548 ?x572)))
(let ((?x573 (ite $x563 274 273)))
(let (($x592 (>= ?x548 ?x573)))
(let ((?x626 (ite $x592 (+ (- ?x548 ?x573) 1) (ite $x590 (+ (- ?x548 ?x572) 1) ?x620))))
(let ((?x574 (ite $x563 305 304)))
(let (($x594 (>= ?x548 ?x574)))
(let ((?x575 (ite $x563 335 334)))
(let (($x596 (>= ?x548 ?x575)))
(let ((?x632 (ite $x596 (+ (- ?x548 ?x575) 1) (ite $x594 (+ (- ?x548 ?x574) 1) ?x626))))
(let (($x302 (= 0 0)))
(let ((?x583 (ite $x582 5 (ite $x580 4 (ite $x578 3 (ite $x576 2 1))))))
(let ((?x591 (ite $x590 9 (ite $x588 8 (ite $x586 7 (ite $x584 6 ?x583))))))
(let (($x451 (= (ite $x302 ?x458 (ite $x596 12 (ite $x594 11 (ite $x592 10 ?x591)))) 2)))
(and (= (ite $x302 ?x459 ?x555) 2019) $x451 (= (ite $x302 ?x484 ?x632) 28))))))))))))))))))))))))))))))))))))))))))))))))))))))))))))))))))))))))
(check-sat)
